
--- Job mdp_procurement_planning_availability_v2.gms Start 11/19/24 05:24:29 45.3.0 c4c31d8a WEX-WEI x86 64bit/MS Windows
--- Applying:
    C:\GAMS\45\gmsprmNT.txt
--- GAMS Parameters defined
    Input C:\Users\ericd\Documents\zweistufige-stochastische-produktionsplanung-mit-repetierfaktor-unsicherheit\documents\mdp_procurement_planning_availability_v2.gms
    PageSize 0
    ScrDir C:\Users\ericd\Documents\zweistufige-stochastische-produktionsplanung-mit-repetierfaktor-unsicherheit\documents\225a\
    SysDir C:\GAMS\45\
    LogOption 3
    ErrMsg 1
    ErrorLog 99
    IDE 1
    LstTitleLeftAligned 1
Licensee: Large MUD - 20 User License                    S220915|0002AN-GEN
          TU Clausthal, Institute of Management and Economics        DC5575
          C:\Users\ericd\Documents\GAMS\gamslice.txt
          License Admin: Astrid Ludwig, astrid.ludwig@tu-clausthal.de      
          The maintenance period of the license will expire on Jan 02, 2025
Processor information: 1 socket(s), 12 core(s), and 16 thread(s) available
GAMS 45.3.0   Copyright (C) 1987-2023 GAMS Development. All rights reserved
--- Starting compilation
--- mdp_procurement_planning_availability_v2.gms(92) 3 Mb
--- $echo File C:\Users\ericd\Documents\zweistufige-stochastische-produktionsplanung-mit-repetierfaktor-unsicherheit\documents\cplex.opt
--- mdp_procurement_planning_availability_v2.gms(143) 3 Mb
--- Starting execution: elapsed 0:00:00.000
--- mdp_procurement_planning_availability_v2.gms(99) 5 Mb
--- Generating LP model MDP
--- mdp_procurement_planning_availability_v2.gms(101) 5 Mb
---   481 rows  32 columns  8,792 non-zeroes
--- Range statistics (absolute non-zero finite values)
--- RHS       [min, max] : [ 1.000E+00, 2.150E+02] - Zero values observed as well
--- Bound     [min, max] : [        NA,        NA] - Zero values observed as well
--- Matrix    [min, max] : [ 3.518E-12, 1.000E+00]
--- Executing CPLEX (Solvelink=2): elapsed 0:00:00.399

IBM ILOG CPLEX   45.3.0 c4c31d8a Nov 11, 2023          WEI x86 64bit/MS Window

--- GAMS/CPLEX Link licensed for continuous and discrete problems.

Reading parameter(s) from "C:\Users\ericd\Documents\zweistufige-stochastische-produktionsplanung-mit-repetierfaktor-unsicherheit\documents\cplex.opt"
>>  epopt 1e-9
>>  eprhs 1e-9
Finished reading from "C:\Users\ericd\Documents\zweistufige-stochastische-produktionsplanung-mit-repetierfaktor-unsicherheit\documents\cplex.opt"

--- GMO setup time: 0.00s
--- Space for names approximately 0.02 Mb
--- Use option 'names no' to turn use of names off
--- GMO memory 0.56 Mb (peak 0.56 Mb)
--- Dictionary memory 0.00 Mb
--- Cplex 22.1.1.0 link memory 0.01 Mb (peak 0.12 Mb)
--- Starting Cplex

Version identifier: 22.1.1.0 | 2022-11-27 | 9160aff4d
CPXPARAM_Advance                                 0
CPXPARAM_Threads                                 1
CPXPARAM_MIP_Display                             4
CPXPARAM_MIP_Pool_Capacity                       0
CPXPARAM_Simplex_Tolerances_Optimality           1.0000000000000001e-09
CPXPARAM_Simplex_Tolerances_Feasibility          1.0000000000000001e-09
CPXPARAM_MIP_Tolerances_AbsMIPGap                0
Tried aggregator 1 time.
LP Presolve eliminated 13 rows and 2 columns.
Reduced LP has 468 rows, 31 columns, and 8406 nonzeros.
Presolve time = 0.00 sec. (2.15 ticks)

Iteration log . . .
Iteration:     1   Scaled dual infeas =             1.000000
Iteration:    17   Dual objective     =           -29.060631

--- LP status (1): optimal.
--- Cplex Time: 0.00sec (det. 4.70 ticks)


Optimal solution found
Objective:          -13.778111

--- Reading solution for model MDP
--- Executing after solve: elapsed 0:00:00.452
--- mdp_procurement_planning_availability_v2.gms(142) 6 Mb
--- Putfile policy C:\Users\ericd\Documents\zweistufige-stochastische-produktionsplanung-mit-repetierfaktor-unsicherheit\documents\policy_availability_model_v2.txt
*** Status: Normal completion
--- Job mdp_procurement_planning_availability_v2.gms Stop 11/19/24 05:24:30 elapsed 0:00:00.453
